Linux optc-01-13 4.15.0-58-generic #64-Ubuntu SMP Tue Aug 6 11:12:41 UTC 2019 x86_64 x86_64 x86_64 GNU/Linux

top - 17:34:15 up 1 day,  7:35,  0 users,  load average: 0,22, 0,73, 0,90
Tasks: 289 gesamt,   1 laufend, 149 schlafend,   0 gestoppt,   0 Zombie
%CPU(s):  7,3 be,  0,3 sy,  0,0 ni, 92,4 un,  0,0 wa,  0,0 hi,  0,0 si,  0,0 st
KiB Spch : 97514992 gesamt, 95366320 frei,   648352 belegt,  1500324 Puff/Cache
KiB Swap:  8388604 gesamt,  8388604 frei,        0 belegt. 96124016 verfü Spch 

  PID USER      PR  NI    VIRT    RES    SHR S  %CPU %MEM     ZEIT+ BEFEHL
    1 root      20   0  233852   9408   6700 S   0,0  0,0   0:10.37 systemd
    2 root      20   0       0      0      0 S   0,0  0,0   0:00.10 kthreadd
    3 root      20   0       0      0      0 I   0,0  0,0   0:01.63 kworker/0:0
    4 root       0 -20       0      0      0 I   0,0  0,0   0:00.00 kworker/0:+
    6 root      20   0       0      0      0 I   0,0  0,0   0:00.00 kworker/u3+
    7 root       0 -20       0      0      0 I   0,0  0,0   0:00.00 mm_percpu_+
    8 root      20   0       0      0      0 S   0,0  0,0   0:00.01 ksoftirqd/0
    9 root      20   0       0      0      0 I   0,0  0,0   0:07.29 rcu_sched

hard time limit: 04:10:00
hard mem limit: 55100

SLURM jobID: 2182366

@01 /nfs/optimi/kombadon/IP/miplib2017/neos8.mps.gz ===========
-----------------------------
Do 22. Aug 17:34:15 CEST 2019
-----------------------------
@03 1566488055
@05 7200
SCIP version 6.0.0 [precision: 8 byte] [memory: block] [mode: optimized] [LP solver: CPLEX 12.8.0.0] [GitHash: 41ab6e0014]
Copyright (C) 2002-2018 Konrad-Zuse-Zentrum fuer Informationstechnik Berlin (ZIB)

External codes: 
  Readline 7.0         GNU library for command line editing (gnu.org/s/readline)
  CPLEX 12.8.0.0       Linear Programming Solver developed by IBM (www.cplex.com)
  CppAD 20180000.0     Algorithmic Differentiation of C++ algorithms developed by B. Bell (www.coin-or.org/CppAD)
  ZLIB 1.2.11          General purpose compression library by J. Gailly and M. Adler (zlib.net)
  GMP 6.1.2            GNU Multiple Precision Arithmetic Library developed by T. Granlund (gmplib.org)
  bliss 0.73p          Computing Graph Automorphism Groups by T. Junttila and P. Kaski (http://www.tcs.hut.fi/Software/bliss/)

user parameter file <scip.set> not found - using default parameters

SCIP> 
SCIP> set load /home/optimi/bzfhende/opti/scip-opti/check/../settings/enable_treeeprofile.set
loaded parameter file </home/optimi/bzfhende/opti/scip-opti/check/../settings/enable_treeprofile.set>
SCIP> set misc referencevalue -3719
misc/referencevalue = -3719
SCIP> set limits time 7200
limits/time = 7200
SCIP> set limits nodes 2100000000
limits/nodes = 2100000000
SCIP> set limits memory 50000
limits/memory = 50000
SCIP> set lp advanced threads 1
lp/threads = 1
SCIP> set timing clocktype 1
timing/clocktype = 1
SCIP> set display freq 10000
display/freq = 10000
SCIP> set memory savefac 1.0
memory/savefac = 1
SCIP> set save /home/optimi/bzfhende/opti/scip-opti/check/treesize.estimation.jouurnal.3/bzfhende.miplib2017.142_neos8.scip.M640.enable_treeprofile.set
saved parameter file </home/optimi/bzfhende/opti/scip-opti/check/treesize.estimation.journal.3/bzfhende.miplib2017.142_neos8.scip.M640.enable_treeprofile.set>
SCIP> read /nfs/optimi/kombadon/IP/miplib2017/neos8.mps.gz

read problem </nfs/optimi/kombadon/IP/miplib2017/neos8.mps.gz>
============

original problem has 23228 variables (23224 bin, 4 int, 0 impl, 0 cont) and 46324 constraints
SCIP> display parameters

number of parameters = 2448
non-default parameter settings:
display/freq = 10000
limits/time = 7200
limits/nodes = 2100000000
limits/memory = 50000
lp/threads = 1
memory/savefac = 1
misc/referencevalue = -3719
presolving/maxrestarts = 0
estimates/profile/enabled = TRUE
estimates/profile/maxdepthfactor = 10
estimates/profile/freq = 0

SCIP> optimize

Activating tree profile data collection
feasible solution found by trivial heuristic after 0.1 seconds, objective value 0.000000e+00
presolving:
(round 1, fast)       148 del vars, 164 del conss, 0 add conss, 0 chg bounds, 2308 chg sides, 2308 chg coeffs, 0 upgd conss, 0 impls, 44 clqs
(round 2, medium)     168 del vars, 184 del conss, 0 add conss, 0 chg bounds, 2308 chg sides, 2308 chg coeffs, 0 upgd conss, 0 impls, 4 clqs
(round 3, fast)       168 del vars, 224 del conss, 0 add conss, 0 chg bounds, 2308 chg sides, 2308 chg coeffs, 0 upgd conss, 0 impls, 4 clqs
(round 4, exhaustive) 168 del vars, 843 del conss, 0 add conss, 4 chg bounds, 2927 chg sides, 2308 chg coeffs, 0 upgd conss, 0 impls, 4 clqs
(round 5, fast)       231 del vars, 906 del conss, 0 add conss, 4 chg bounds, 2927 chg sides, 2308 chg coeffs, 0 upgd conss, 0 impls, 4 clqs
(round 6, exhaustive) 231 del vars, 1206 del conss, 0 add conss, 4 chg bounds, 3227 chg sides, 2308 chg coeffs, 0 upgd conss, 0 impls, 4 clqs
(round 7, fast)       531 del vars, 1506 del conss, 0 add conss, 4 chg bounds, 3227 chg sides, 2308 chg coeffs, 0 upgd conss, 0 impls, 4 clqs
(round 8, exhaustive) 531 del vars, 1530 del conss, 0 add conss, 4 chg bounds, 3251 chg sides, 2308 chg coeffs, 0 upgd conss, 0 impls, 4 clqs
(round 9, fast)       555 del vars, 1554 del conss, 0 add conss, 4 chg bounds, 3251 chg sides, 2308 chg coeffs, 0 upgd conss, 0 impls, 4 clqs
(round 10, exhaustive) 555 del vars, 1568 del conss, 0 add conss, 4 chg bounds, 3265 chg sides, 2308 chg coeffs, 44228 upgd conss, 0 impls, 4 clqs
(round 11, medium)     21568 del vars, 40946 del conss, 3712 add conss, 4 chg bounds, 3265 chg sides, 26931 chg coeffs, 44228 upgd conss, 0 impls, 3990 clqs
(round 12, fast)       21570 del vars, 40948 del conss, 3712 add conss, 4 chg bounds, 3265 chg sides, 26931 chg coeffs, 44228 upgd conss, 0 impls, 3994 clqs
(round 13, exhaustive) 21570 del vars, 45308 del conss, 5040 add conss, 4 chg bounds, 3265 chg sides, 26931 chg coeffs, 44228 upgd conss, 0 impls, 3994 clqs
(round 14, exhaustive) 22550 del vars, 46288 del conss, 5040 add conss, 4 chg bounds, 3265 chg sides, 26931 chg coeffs, 44228 upgd conss, 0 impls, 1978 clqs
(round 15, medium)     22550 del vars, 46322 del conss, 5040 add conss, 4 chg bounds, 3265 chg sides, 26931 chg coeffs, 44228 upgd conss, 0 impls, 1978 clqs
(round 16, exhaustive) 22550 del vars, 46372 del conss, 5040 add conss, 4 chg bounds, 3265 chg sides, 26931 chg coeffs, 44228 upgd conss, 0 impls, 1978 clqs
(round 17, exhaustive) 22550 del vars, 46372 del conss, 5040 add conss, 4 chg bounds, 3265 chg sides, 26931 chg coeffs, 44696 upgd conss, 0 impls, 1978 clqs
(round 18, fast)       22550 del vars, 46532 del conss, 5040 add conss, 4 chg bounds, 3265 chg sides, 26931 chg coeffs, 44696 upgd conss, 0 impls, 1978 clqs
(round 19, exhaustive) 22550 del vars, 47500 del conss, 5328 add conss, 4 chg bounds, 3265 chg sides, 26931 chg coeffs, 44696 upgd conss, 0 impls, 1978 clqs
(round 20, exhaustive) 22550 del vars, 47520 del conss, 5328 add conss, 4 chg bounds, 3265 chg sides, 26931 chg coeffs, 44696 upgd conss, 0 impls, 1978 clqs
(round 21, exhaustive) 22670 del vars, 47640 del conss, 5328 add conss, 4 chg bounds, 3265 chg sides, 26931 chg coeffs, 44696 upgd conss, 0 impls, 1634 clqs
(round 22, exhaustive) 22670 del vars, 50780 del conss, 5328 add conss, 4 chg bounds, 3265 chg sides, 26931 chg coeffs, 44696 upgd conss, 0 impls, 1634 clqs
   (1.7s) probing cycle finished: starting next cycle
presolving (23 rounds: 23 fast, 16 medium, 13 exhaustive):
 22670 deleted vars, 50780 deleted constraints, 5328 added constraints, 4 tightened bounds, 0 added holes, 3265 changed sides, 26931 changed coefficients
 340 implications, 119828 cliques
presolved problem has 558 variables (556 bin, 2 int, 0 impl, 0 cont) and 872 constraints
     14 constraints of type <knapsack>
      4 constraints of type <setppc>
    516 constraints of type <and>
      8 constraints of type <linear>
    330 constraints of type <logicor>
transformed objective value is always integral (scale: 1)
Presolving Time: 1.62
transformed 1/1 original solutions to the transformed problem space

 time | node  | left  |LP iter|LP it/n| mem |mdpt |frac |vars |cons |cols |rows |cuts |confs|strbr|  dualbound   | primalbound  |  gap   
Q 1.7s|     1 |     0 |     0 |     - | 205M|   0 |   - | 558 | 872 | 558 |1388 |   0 |   0 |   0 |-4.390700e+04 |-3.170000e+03 |1285.08%
V 1.8s|     1 |     0 |     0 |     - | 206M|   0 |   - | 558 | 888 | 558 |1388 |   0 |  16 |   0 |-4.390700e+04 |-3.209000e+03 |1268.25%
V 1.8s|     1 |     0 |     0 |     - | 206M|   0 |   - | 558 | 888 | 558 |1388 |   0 |  16 |   0 |-4.390700e+04 |-3.267000e+03 |1243.95%
  1.8s|     1 |     0 |    43 |     - | 207M|   0 | 193 | 558 | 888 | 558 |1440 |   0 |  16 |   0 |-3.725000e+03 |-3.267000e+03 |  14.02%
  1.8s|     1 |     0 |    46 |     - | 207M|   0 | 190 | 558 | 889 | 558 |1143 |   0 |  17 |   0 |-3.725000e+03 |-3.267000e+03 |  14.02%
  2.0s|     1 |     0 |   174 |     - | 207M|   0 |  85 | 558 | 847 | 558 |1234 | 112 |  17 |   0 |-3.725000e+03 |-3.267000e+03 |  14.02%
  2.0s|     1 |     0 |   189 |     - | 207M|   0 |   6 | 558 | 805 | 558 |1244 | 122 |  21 |   0 |-3.719000e+03 |-3.267000e+03 |  13.84%
R 2.0s|     1 |     0 |   189 |     - | 207M|   0 |   - | 558 | 802 | 558 |1201 | 122 |  22 |   0 |-3.719000e+03 |-3.719000e+03 |   0.00%
  2.0s|     1 |     0 |   189 |     - | 207M|   0 |   - | 558 | 802 | 558 |1201 | 122 |  22 |   0 |-3.719000e+03 |-3.719000e+03 |   0.00%
SCIP nodes: 1 Estimation: -1
  2.0s|     1 |     0 |   189 |     - | 207M|   0 |   - | 558 | 802 | 558 |1201 | 122 |  22 |   0 |-3.719000e+03 |-3.719000e+03 |   0.00%
Report 1
Time Elapsed: 2.01
  Tree Data        : 1 nodes (1 visited, 0 inner, 1 leaves, 0 open), progress: 1.0000
Tree Estimation    :       estim       value       trend  resolution      smooth
  wbe              :          -1           -           -           -           -
  tree profile     :          -1           -           -           -           -
  gap              :           1     1.00000     1.00000           1           1
  progress         :           1     1.00000     1.00000           1           1
  leaf-frequency   :           1     0.50000     1.00000           1           1
  ssg              :           1     0.00000    -1.00000           1           1
  open-nodes       :           1     0.00000     0.00000           1           1
End of Report 1


SCIP Status        : problem is solved [optimal solution found]
Solving Time (sec) : 2.01
Solving Nodes      : 1
Primal Bound       : -3.71900000000000e+03 (5 solutions)
Dual Bound         : -3.71900000000000e+03
Gap                : 0.00 %

SCIP> display statistics

SCIP Status        : problem is solved [optimal solution found]
Total Time         :       2.16
  solving          :       2.01
  presolving       :       1.62 (included in solving)
  reading          :       0.15
  copying          :       0.00 (1 #copies) (minimal 0.00, maximal 0.00, average 0.00)
Original Problem   :
  Problem name     : neos8
  Variables        : 23228 (23224 binary, 4 integer, 0 implicit integer, 0 continuous)
  Constraints      : 46324 initial, 46324 maximal
  Objective        : minimize, 32 non-zeros (abs.min = 1, abs.max = 2700)
Presolved Problem  :
  Problem name     : t_neos8
  Variables        : 558 (556 binary, 2 integer, 0 implicit integer, 0 continuous)
  Constraints      : 872 initial, 889 maximal
  Objective        : minimize, 114 non-zeros (abs.min = 1, abs.max = 2678)
Presolvers         :   ExecTime  SetupTime  Calls  FixedVars   AggrVars   ChgTypes  ChgBounds   AddHoles    DelCons    AddCons   ChgSides   ChgCoefs
  boundshift       :       0.00       0.00      0          0          0          0          0          0          0          0          0          0
  convertinttobin  :       0.00       0.00      0          0          0          0          0          0          0          0          0          0
  domcol           :       0.00       0.00      1          0          0          0          0          0          0          0          0          0
  dualagg          :       0.00       0.00      0          0          0          0          0          0          0          0          0          0
  dualcomp         :       0.00       0.00      0          0          0          0          0          0          0          0          0          0
  dualinfer        :       0.00       0.00      0          0          0          0          0          0          0          0          0          0
  gateextraction   :       0.05       0.00      9          0          0          0          0          0       5328       1616          0          0
  implics          :       0.00       0.00     16          0          0          0          0          0          0          0          0          0
  inttobinary      :       0.00       0.00     23          0          0          0          0          0          0          0          0          0
  qpkktref         :       0.00       0.00      0          0          0          0          0          0          0          0          0          0
  redvub           :       0.00       0.00      0          0          0          0          0          0          0          0          0          0
  sparsify         :       0.00       0.00      1          0          0          0          0          0          0          0          0          0
  stuffing         :       0.00       0.00      0          0          0          0          0          0          0          0          0          0
  symbreak         :       0.00       0.00      0          0          0          0          0          0          0          0          0          0
  symmetry         :       0.00       0.00      0          0          0          0          0          0          0          0          0          0
  trivial          :       0.00       0.00     23          0          0          0          0          0          0          0          0          0
  tworowbnd        :       0.00       0.00      0          0          0          0          0          0          0          0          0          0
  dualfix          :       0.00       0.00     23        513          0          0          0          0          0          0          0          0
  genvbounds       :       0.00       0.00      0          0          0          0          0          0          0          0          0          0
  orbitalfixing    :       0.00       0.00      0          0          0          0          0          0          0          0          0          0
  probing          :       0.57       0.00      1          0          0          0          0          0          0          0          0          0
  pseudoobj        :       0.00       0.00      2          0          0          0          0          0          0          0          0          0
  vbounds          :       0.02       0.00      2          0         20          0          0          0          0          0          0          0
  knapsack         :       0.20       0.00     31      20999          0          0          0          0      22663       3712          0       4404
  setppc           :       0.01       0.00     31          0          0          0          0          0         20          0          0          0
  and              :       0.02       0.00     16          0       1100          0          0          0       1100          0          0          0
  linear           :       0.56       0.02     31          0         38          0          4          0       1620          0       3265       2308
  logicor          :       0.07       0.00     26          0          0          0          0          0      20049          0          0      20219
  benders          :       0.00       0.00      0          0          0          0          0          0          0          0          0          0
  components       :       0.00       0.00      1          0          0          0          0          0          0          0          0          0
  root node        :          -          -      -        134          -          -        134          -          -          -          -          -
Constraints        :     Number  MaxNumber  #Separate #Propagate    #EnfoLP    #EnfoRelax  #EnfoPS    #Check   #ResProp    Cutoffs    DomReds       Cuts    Applied      Conss   Children
  benderslp        :          0          0          0          0          0          0          0         13          0          0          0          0          0          0          0
  integral         :          0          0          0          0          0          0          0         13          0          0          0          0          0          0          0
  knapsack         :         14         14          2       2432          0          0          0          7          2          0          0          0          0          0          0
  setppc           :          4+        33          2       2314          0          0          0          6          5          0          0          0          0          0          0
  and              :        516        516          2       2432          0          0          0          6        121          4          0        163        113          0          0
  linear           :          8          8          2       2426          0          0          0          5         14          8          0          0          0          0          0
  logicor          :        330+       370          2       1138          0          0          0          5         64          0          0          0          0          0          0
  benders          :          0          0          0          0          0          0          0          8          0          0          0          0          0          0          0
  countsols        :          0          0          0          0          0          0          0          8          0          0          0          0          0          0          0
  components       :          0          0          0          0          0          0          0          0          0          0          0          0          0          0          0
Constraint Timings :  TotalTime  SetupTime   Separate  Propagate     EnfoLP     EnfoPS     EnfoRelax   Check    ResProp    SB-Prop
  benderslp        :       0.00       0.00       0.00       0.00       0.00       0.00       0.00       0.00       0.00       0.00
  integral         :       0.00       0.00       0.00       0.00       0.00       0.00       0.00       0.00       0.00       0.00
  knapsack         :       0.00       0.00       0.00       0.00       0.00       0.00       0.00       0.00       0.00       0.00
  setppc           :       0.00       0.00       0.00       0.00       0.00       0.00       0.00       0.00       0.00       0.00
  and              :       0.15       0.00       0.00       0.15       0.00       0.00       0.00       0.00       0.00       0.00
  linear           :       0.02       0.02       0.00       0.00       0.00       0.00       0.00       0.00       0.00       0.00
  logicor          :       0.01       0.00       0.01       0.00       0.00       0.00       0.00       0.00       0.00       0.00
  benders          :       0.00       0.00       0.00       0.00       0.00       0.00       0.00       0.00       0.00       0.00
  countsols        :       0.00       0.00       0.00       0.00       0.00       0.00       0.00       0.00       0.00       0.00
  components       :       0.00       0.00       0.00       0.00       0.00       0.00       0.00       0.00       0.00       0.00
Propagators        : #Propagate   #ResProp    Cutoffs    DomReds
  dualfix          :          3          0          0          0
  genvbounds       :          0          0          0          0
  nlobbt           :          0          0          0          0
  obbt             :          0          0          0          0
  orbitalfixing    :          0          0          0          0
  probing          :          0          0          0          0
  pseudoobj        :         11          0          0         54
  redcost          :          4          0          0         60
  rootredcost      :          0          0          0          0
  vbounds          :        743          0          0          0
Propagator Timings :  TotalTime  SetupTime   Presolve  Propagate    ResProp    SB-Prop
  dualfix          :       0.00       0.00       0.00       0.00       0.00       0.00
  genvbounds       :       0.00       0.00       0.00       0.00       0.00       0.00
  nlobbt           :       0.00       0.00       0.00       0.00       0.00       0.00
  obbt             :       0.00       0.00       0.00       0.00       0.00       0.00
  orbitalfixing    :       0.00       0.00       0.00       0.00       0.00       0.00
  probing          :       0.57       0.00       0.57       0.00       0.00       0.00
  pseudoobj        :       0.01       0.00       0.00       0.01       0.00       0.00
  redcost          :       0.00       0.00       0.00       0.00       0.00       0.00
  rootredcost      :       0.00       0.00       0.00       0.00       0.00       0.00
  vbounds          :       0.03       0.00       0.02       0.01       0.00       0.00
Conflict Analysis  :       Time      Calls    Success    DomReds  Conflicts   Literals    Reconvs ReconvLits   Dualrays   Nonzeros   LP Iters   (pool size: [10000,10000])
  propagation      :       0.00         12         12          -         17       10.6          0        0.0          -          -          -
  infeasible LP    :       0.00          0          0          -          0        0.0          0        0.0          0        0.0          0
  bound exceed. LP :       0.00          3          3          -          5       17.0          0        0.0          0        0.0         40
  strong branching :       0.00          0          0          -          0        0.0          0        0.0          -          -          0
  pseudo solution  :       0.00          0          0          -          0        0.0          0        0.0          -          -          -
  applied globally :       0.00          -          -          0         22        7.5          -          -          0          -          -
  applied locally  :          -          -          -          0          0        0.0          -          -          0          -          -
Separators         :   ExecTime  SetupTime      Calls    Cutoffs    DomReds       Cuts    Applied      Conss
  cut pool         :       0.00                     3          -          -         29          -          -    (maximal pool size: 468)
  aggregation      :       0.00       0.00          2          0          0          0          0          0
  cgmip            :       0.00       0.00          0          0          0          0          0          0
  clique           :       0.09       0.00          2          0          0          0          5          0
  closecuts        :       0.00       0.00          0          0          0          0          0          0
  cmir             :       0.00       0.00          0          0          0          0          0          0
  convexproj       :       0.00       0.00          0          0          0          0          0          0
  disjunctive      :       0.00       0.00          0          0          0          0          0          0
  eccuts           :       0.00       0.00          0          0          0          0          0          0
  flowcover        :       0.00       0.00          0          0          0          0          0          0
  gauge            :       0.00       0.00          0          0          0          0          0          0
  gomory           :       0.03       0.00          2          0          0          0          1          0
  impliedbounds    :       0.03       0.00          2          0         18          0          2          0
  intobj           :       0.00       0.00          0          0          0          0          0          0
  mcf              :       0.00       0.00          1          0          0          0          0          0
  oddcycle         :       0.00       0.00          0          0          0          0          0          0
  rapidlearning    :       0.00       0.00          0          0          0          0          0          0
  strongcg         :       0.04       0.00          2          0          0          0          0          0
  zerohalf         :       0.00       0.00          2          0          0          0          1          0
Pricers            :   ExecTime  SetupTime      Calls       Vars
  problem variables:       0.00          -          0          0
Branching Rules    :   ExecTime  SetupTime   BranchLP  BranchExt   BranchPS    Cutoffs    DomReds       Cuts      Conss   Children
  allfullstrong    :       0.00       0.00          0          0          0          0          0          0          0          0
  cloud            :       0.00       0.00          0          0          0          0          0          0          0          0
  distribution     :       0.00       0.00          0          0          0          0          0          0          0          0
  fullstrong       :       0.00       0.00          0          0          0          0          0          0          0          0
  inference        :       0.00       0.00          0          0          0          0          0          0          0          0
  leastinf         :       0.00       0.00          0          0          0          0          0          0          0          0
  lookahead        :       0.00       0.00          0          0          0          0          0          0          0          0
  mostinf          :       0.00       0.00          0          0          0          0          0          0          0          0
  multaggr         :       0.00       0.00          0          0          0          0          0          0          0          0
  nodereopt        :       0.00       0.00          0          0          0          0          0          0          0          0
  pscost           :       0.00       0.00          0          0          0          0          0          0          0          0
  random           :       0.00       0.00          0          0          0          0          0          0          0          0
  relpscost        :       0.00       0.00          0          0          0          0          0          0          0          0
Primal Heuristics  :   ExecTime  SetupTime      Calls      Found       Best
  LP solutions     :       0.00          -          -          0          0
  relax solutions  :       0.00          -          -          0          0
  pseudo solutions :       0.00          -          -          0          0
  strong branching :       0.00          -          -          0          0
  actconsdiving    :       0.00       0.00          0          0          0
  alns             :       0.00       0.00          0          0          0
  bound            :       0.00       0.00          0          0          0
  clique           :       0.01       0.00          1          1          1
  coefdiving       :       0.00       0.00          0          0          0
  completesol      :       0.00       0.00          0          0          0
  conflictdiving   :       0.00       0.00          0          0          0
  crossover        :       0.00       0.00          0          0          0
  dins             :       0.00       0.00          0          0          0
  distributiondivin:       0.00       0.00          0          0          0
  dualval          :       0.00       0.00          0          0          0
  farkasdiving     :       0.00       0.00          0          0          0
  feaspump         :       0.00       0.00          0          0          0
  fixandinfer      :       0.00       0.00          0          0          0
  fracdiving       :       0.00       0.00          0          0          0
  gins             :       0.00       0.00          0          0          0
  guideddiving     :       0.00       0.00          0          0          0
  indicator        :       0.00       0.00          0          0          0
  intdiving        :       0.00       0.00          0          0          0
  intshifting      :       0.00       0.00          0          0          0
  linesearchdiving :       0.00       0.00          0          0          0
  localbranching   :       0.00       0.00          0          0          0
  locks            :       0.01       0.00          1          0          0
  lpface           :       0.00       0.00          0          0          0
  mpec             :       0.00       0.00          0          0          0
  multistart       :       0.00       0.00          0          0          0
  mutation         :       0.00       0.00          0          0          0
  nlpdiving        :       0.00       0.00          0          0          0
  objpscostdiving  :       0.00       0.00          0          0          0
  octane           :       0.00       0.00          0          0          0
  ofins            :       0.00       0.00          0          0          0
  oneopt           :       0.00       0.00          1          0          0
  proximity        :       0.00       0.00          0          0          0
  pscostdiving     :       0.00       0.00          0          0          0
  randrounding     :       0.00       0.00          3          0          0
  rens             :       0.00       0.00          0          0          0
  reoptsols        :       0.00       0.00          0          0          0
  repair           :       0.00       0.00          0          0          0
  rins             :       0.00       0.00          0          0          0
  rootsoldiving    :       0.00       0.00          0          0          0
  rounding         :       0.00       0.00          3          1          1
  shiftandpropagate:       0.00       0.00          0          0          0
  shifting         :       0.00       0.00          2          0          0
  simplerounding   :       0.00       0.00          4          0          0
  subnlp           :       0.00       0.00          0          0          0
  trivial          :       0.03       0.00          2          1          1
  trivialnegation  :       0.00       0.00          0          0          0
  trysol           :       0.00       0.00          0          0          0
  twoopt           :       0.00       0.00          0          0          0
  undercover       :       0.04       0.00          1          0          0
  vbounds          :       0.03       0.00          1          2          2
  veclendiving     :       0.00       0.00          0          0          0
  zeroobj          :       0.00       0.00          0          0          0
  zirounding       :       0.00       0.00          0          0          0
  other solutions  :          -          -          -          0          -
Diving Statistics  :      Calls      Nodes   LP Iters Backtracks  Conflicts   MinDepth   MaxDepth   AvgDepth  RoundSols  NLeafSols  MinSolDpt  MaxSolDpt  AvgSolDpt
  actconsdiving    :          0          -          -          -          -          -          -          -          -          -          -          -          -
  coefdiving       :          0          -          -          -          -          -          -          -          -          -          -          -          -
  conflictdiving   :          0          -          -          -          -          -          -          -          -          -          -          -          -
  distributiondivin:          0          -          -          -          -          -          -          -          -          -          -          -          -
  farkasdiving     :          0          -          -          -          -          -          -          -          -          -          -          -          -
  fracdiving       :          0          -          -          -          -          -          -          -          -          -          -          -          -
  guideddiving     :          0          -          -          -          -          -          -          -          -          -          -          -          -
  linesearchdiving :          0          -          -          -          -          -          -          -          -          -          -          -          -
  pscostdiving     :          0          -          -          -          -          -          -          -          -          -          -          -          -
  veclendiving     :          0          -          -          -          -          -          -          -          -          -          -          -          -
Neighborhoods      :      Calls  SetupTime  SolveTime SolveNodes       Sols       Best       Exp3  EpsGreedy        UCB TgtFixRate  Opt  Inf Node Stal  Sol  Usr Othr Actv
  rens             :          0       0.00       0.00          0          0          0    0.00000   -1.00000    1.00000      0.900    0    0    0    0    0    0    0    1
  rins             :          0       0.00       0.00          0          0          0    0.00000   -1.00000    1.00000      0.900    0    0    0    0    0    0    0    1
  mutation         :          0       0.00       0.00          0          0          0    0.00000   -1.00000    1.00000      0.900    0    0    0    0    0    0    0    1
  localbranching   :          0       0.00       0.00          0          0          0    0.00000   -1.00000    1.00000      0.900    0    0    0    0    0    0    0    1
  crossover        :          0       0.00       0.00          0          0          0    0.00000   -1.00000    1.00000      0.900    0    0    0    0    0    0    0    1
  proximity        :          0       0.00       0.00          0          0          0    0.00000   -1.00000    1.00000      0.900    0    0    0    0    0    0    0    1
  zeroobjective    :          0       0.00       0.00          0          0          0    0.00000   -1.00000    1.00000      0.900    0    0    0    0    0    0    0    1
  dins             :          0       0.00       0.00          0          0          0    0.00000   -1.00000    1.00000      0.900    0    0    0    0    0    0    0    1
LP                 :       Time      Calls Iterations  Iter/call   Iter/sec  Time-0-It Calls-0-It    ItLimit
  primal LP        :       0.00          0          0       0.00          -       0.00          0
  dual LP          :       0.01          6        189      37.80   18900.00       0.00          1
  lex dual LP      :       0.00          0          0       0.00          -
  barrier LP       :       0.00          0          0       0.00          -       0.00          0
  resolve instable :       0.00          0          0       0.00          -
  diving/probing LP:       0.00          0          0       0.00          -
  strong branching :       0.00          0          0       0.00          -          -          -          0
    (at root node) :          -          0          0       0.00          -
  conflict analysis:       0.00          4         40      10.00          -
B&B Tree           :
  number of runs   :          1
  nodes            :          1 (0 internal, 1 leaves)
  feasible leaves  :          0
  infeas. leaves   :          0
  objective leaves :          1
  nodes (total)    :          1 (0 internal, 1 leaves)
  nodes left       :          0
  max depth        :          0
  max depth (total):          0
  backtracks       :          0 (0.0%)
  early backtracks :          0 (0.0%)
  nodes exc. ref.  :          0 (0.0%)
  delayed cutoffs  :          0
  repropagations   :          0 (0 domain reductions, 0 cutoffs)
  avg switch length:       2.00
  switching time   :       0.00
Root Node          :
  First LP value   : -3.72500000000000e+03
  First LP Iters   :         43
  First LP Time    :       0.00
  Final Dual Bound : -3.71900000000000e+03
  Final Root Iters :        189
  Root LP Estimate :                     -
Solution           :
  Solutions found  :          5 (5 improvements)
  First Solution   : +0.00000000000000e+00   (in run 1, after 0 nodes, 0.08 seconds, depth 0, found by <trivial>)
  Gap First Sol.   :   infinite
  Gap Last Sol.    :       0.00 %
  Primal Bound     : -3.71900000000000e+03   (in run 1, after 1 nodes, 2.01 seconds, depth 0, found by <rounding>)
  Dual Bound       : -3.71900000000000e+03
  Gap              :       0.00 %
  Avg. Gap         :      88.95 % (178.78 primal-dual integral)
  Tree Data        : 1 nodes (1 visited, 0 inner, 1 leaves, 0 open), progress: 1.0000
Tree Estimation    :       estim       value       trend  resolution      smooth
  wbe              :           1           -           -           -           -
  tree profile     :          -1           -           -           -           -
  gap              :           1     1.00000     1.00000           1           1
  progress         :           1     1.00000     1.00000           1           1
  leaf-frequency   :           1     0.50000     1.00000           1           1
  ssg              :           1     0.00000    -1.00000           1           1
  open-nodes       :           1     0.00000     0.00000           1           1


SCIP> checksol

check best solution
solution is feasible in original problem
Violation          :    absolute    relative
  bounds           : 0.00000e+00 0.00000e+00
  integrality      : 0.00000e+00           -
  LP rows          : 0.00000e+00 0.00000e+00
  constraints      : 0.00000e+00 0.00000e+00

SCIP> write sol /local/tmp/bzfhende-tmpdir/bzfhende.miplib2017.142_neos8.scip.M6440.enable_treeprofile.sol

written solution information to file </local/tmp/bzfhende-tmpdir/bzfhende.miplib2017.142_neos8.scip.M640.enable_treeprofile.sol>

SCIP> quit

Disabling tree profile data collection
Read MPS: 1
MIP has 23228 vars and 46324 constraints
Read SOL: 1
Objective value computed by solver: -3719

Integrality tolerance: 1/10000
Linear tolerance: 1/10000
Objective tolerance: 1/10000

Check SOL: Integrality 1 Constraints 1 Objective 1
Maximum violations: Integrality 0 Constraints 0 Objective 0
@04 1566488059
-----------------------------
Do 22. Aug 17:34:19 CEST 2019
-----------------------------

=ready=
